dias = 10;
clientes = 8;
centrales = 3;

costos=[100,200,300];
capacidades=[500,800,2000];
porcentajeRegimen=[80,80,0];
diasRegimen=[2,1,3];

demanda=[|50,200,200,400,0,900,0,100,500,10|
          25,100,100,100,300,0,0,150,300,1000|
          50,10,100,10,0,300,0,150,300,10|
          25,300,100,100,0,0,0,200,300,10|
          50,100,10,300,0,300,0,150,300,10|
          25,300,100,100,0,0,0,150,300,10|
          50,100,100,100,150,0,0,150,300,10|
          50,100,100,250,0,150,0,200,300,10|]
